138
0 107 98 65 84 68 89 28 19 128 
78 72 45 37 17 95 67 104 94 66 
50 61 97 25 35 47 9 39 80 99 
1 133 131 115 71 106 10 69 130 60 
136 121 21 34 85 127 38 15 86 125 
63 55 54 87 123 18 90 36 93 33 
23 40 43 88 92 96 134 116 59 46 
32 16 56 108 126 22 48 129 64 3 
101 118 137 7 51 13 20 103 11 117 
31 75 12 62 122 82 5 57 120 74 
109 44 53 111 77 105 29 49 2 6 
110 102 52 41 113 132 112 4 100 124 
79 81 58 24 8 76 27 42 91 70 
83 114 26 135 14 73 30 119 
